multiobj/instances/uniform/Ter.5.2.1.00.3.in
5 2
0 1 862 105 5 
1 0 100 377 177 
862 100 0 804 728 
105 377 804 0 463 
5 177 728 463 0 
0 349 590 252 297 
349 0 694 341 543 
590 694 0 217 58 
252 341 217 0 805 
297 543 58 805 0 
0 349 590 252 297 
349 0 694 341 543 
590 694 0 217 58 
252 341 217 0 805 
297 543 58 805 0 
