multiobj/solutions/Ter.5.2.1.00.3.out
1 2
3 1 2 4 0 
2192182 2192182 
